c instance by G2
c solution = 001101000000101000100
c Known solution cost is 987 
p cnf 21 30
w 33 73 75 58 98 38 5 23 66 61 14 26 74 99 23 25 51 36 41 43 25
-8 11 3 0
4 7 10 0
21 -2 -9 0
12 -15 -18 0
8 -6 3 0
7 19 21 0
10 -9 18 0
-8 21 9 0
9 -3 -20 0
16 -2 20 0
-19 16 -12 0
21 8 -2 0
-3 -11 -19 0
13 -3 -19 0
-13 -3 -8 0
11 20 -10 0
-19 6 -13 0
15 20 19 0
21 17 15 0
-5 10 -19 0
-21 3 -15 0
10 -14 9 0
8 -17 20 0
19 5 -16 0
-20 17 5 0
-7 20 8 0
-19 16 -21 0
-13 -1 11 0
1 9 -16 0
-7 -6 3 0
